row=6;
column=6;
Board=[|4,6,1,2,3,5|6,2,4,3,5,1|3,5,2,6,1,4|2,1,6,5,4,3|1,3,5,4,6,2|5,4,3,1,2,6|];
horizontal=[|0,1,0,0,0|1,0,1,0,1|0,1,0,1,0|1,0,1,1,1|0,0,1,0,1|1,1,1,0,0|];
vertical=[|0,1,0,0,0,1|1,0,1,0,1,0|1,1,0,1,0,1|1,0,1,1,0,1|0,0,1,1,1,0|];
